;; produced by z3_gnatprove.drv ;;
(set-info :smt-lib-version 2.5)
(set-info :source |VC generated by SPARK 2014|)
(set-info :category industrial)
(set-info :status unknown)
;;; generated by SMT-LIB2 driver
;;; SMT-LIB2 driver: bit-vectors, common part
;;; SMT-LIB2: integer arithmetic
(declare-sort string 0)

(declare-datatypes () ((tuple0 (Tuple0))))
(declare-sort us_private 0)

(declare-fun private__bool_eq (us_private us_private) Bool)

(declare-const us_null_ext__ us_private)

(declare-sort us_type_of_heap 0)

(declare-datatypes ()
((us_type_of_heap__ref
 (us_type_of_heap__refqtmk (us_type_of_heap__content us_type_of_heap)))))
(declare-sort us_image 0)

(declare-datatypes () ((int__ref (int__refqtmk (int__content Int)))))
(declare-datatypes () ((bool__ref (bool__refqtmk (bool__content Bool)))))
(declare-datatypes ()
((us_fixed__ref (us_fixed__refqtmk (us_fixed__content Int)))))
(declare-datatypes () ((real__ref (real__refqtmk (real__content Real)))))
(declare-datatypes ()
((us_private__ref (us_private__refqtmk (us_private__content us_private)))))
(define-fun int__ref___projection ((a int__ref)) Int (int__content a))

(define-fun us_fixed__ref___projection ((a us_fixed__ref)) Int (us_fixed__content
                                                               a))

(define-fun bool__ref___projection ((a bool__ref)) Bool (bool__content a))

(define-fun real__ref___projection ((a real__ref)) Real (real__content a))

(define-fun us_private__ref___projection ((a us_private__ref)) us_private 
  (us_private__content a))

(declare-sort natural 0)

(declare-fun naturalqtint (natural) Int)

;; natural'axiom
  (assert
  (forall ((i natural))
  (and (<= 0 (naturalqtint i)) (<= (naturalqtint i) 2147483647))))

(define-fun in_range ((x Int)) Bool (and (<= 0 x) (<= x 2147483647)))

(declare-fun attr__ATTRIBUTE_IMAGE (Int) us_image)

(declare-fun attr__ATTRIBUTE_VALUE__pre_check (us_image) Bool)

(declare-fun attr__ATTRIBUTE_VALUE (us_image) Int)

(declare-fun user_eq (natural natural) Bool)

(declare-const dummy natural)

(declare-datatypes ()
((natural__ref (natural__refqtmk (natural__content natural)))))
(define-fun natural__ref_natural__content__projection ((a natural__ref)) natural 
  (natural__content a))

(define-fun to_rep ((x natural)) Int (naturalqtint x))

(declare-fun of_rep (Int) natural)

;; inversion_axiom
  (assert
  (forall ((x natural)) (! (= (of_rep (to_rep x)) x) :pattern ((to_rep x)) )))

;; range_axiom
  (assert
  (forall ((x natural)) (! (in_range (to_rep x)) :pattern ((to_rep x)) )))

;; coerce_axiom
  (assert
  (forall ((x Int))
  (! (=> (in_range x) (= (to_rep (of_rep x)) x)) :pattern ((to_rep
                                                           (of_rep x))) )))

(declare-datatypes ()
((map__ref (map__refqtmk (map__content (Array Int natural))))))
(declare-fun slide ((Array Int natural) Int Int) (Array Int natural))

;; slide_eq
  (assert
  (forall ((a (Array Int natural)))
  (forall ((first Int))
  (! (= (slide a first first) a) :pattern ((slide a first first)) ))))

;; slide_def
  (assert
  (forall ((a (Array Int natural)))
  (forall ((old_first Int))
  (forall ((new_first Int))
  (forall ((i Int))
  (! (= (select (slide a old_first new_first) i) (select a (- i (- new_first old_first)))) :pattern ((select 
  (slide a old_first new_first) i)) ))))))

(define-fun bool_eq ((a (Array Int natural)) (a__first Int) (a__last Int)
  (b (Array Int natural)) (b__first Int)
  (b__last Int)) Bool (ite (and
                           (ite (<= a__first a__last)
                           (and (<= b__first b__last)
                           (= (- a__last a__first) (- b__last b__first)))
                           (< b__last b__first))
                           (forall ((temp___idx_154 Int))
                           (=>
                           (and (<= a__first temp___idx_154)
                           (<= temp___idx_154 a__last))
                           (= (to_rep (select a temp___idx_154)) (to_rep
                                                                 (select b (+ (- b__first a__first) temp___idx_154)))))))
                      true false))

;; bool_eq_rev
  (assert
  (forall ((a (Array Int natural)) (b (Array Int natural)))
  (forall ((a__first Int) (a__last Int) (b__first Int) (b__last Int))
  (=> (= (bool_eq b b__first b__last a a__first a__last) true)
  (and
  (ite (<= a__first a__last)
  (and (<= b__first b__last) (= (- a__last a__first) (- b__last b__first)))
  (< b__last b__first))
  (forall ((temp___idx_154 Int))
  (=> (and (<= a__first temp___idx_154) (<= temp___idx_154 a__last))
  (= (to_rep (select a temp___idx_154)) (to_rep
                                        (select b (+ (- b__first a__first) temp___idx_154)))))))))))

(declare-const dummy1 (Array Int natural))

(declare-const value__size Int)

(declare-const object__size Int)

(declare-const component__size Int)

(declare-const alignment Int)

;; value__size_axiom
  (assert (<= 0 value__size))

;; object__size_axiom
  (assert (<= 0 object__size))

;; component__size_axiom
  (assert (<= 0 component__size))

;; alignment_axiom
  (assert (<= 0 alignment))

(declare-fun user_eq1 ((Array Int natural) (Array Int natural)) Bool)

(declare-datatypes ()
((us_split_fields
 (us_split_fieldsqtmk
 (rec__composite_cursors__cont2__content (Array Int natural))(rec__composite_cursors__cont2__length natural)))))
(define-fun us_split_fields_rec__composite_cursors__cont2__content__projection ((a us_split_fields)) (Array Int natural) 
  (rec__composite_cursors__cont2__content a))

(define-fun us_split_fields_rec__composite_cursors__cont2__length__projection ((a us_split_fields)) natural 
  (rec__composite_cursors__cont2__length a))

(declare-datatypes ()
((us_split_fields__ref
 (us_split_fields__refqtmk (us_split_fields__content us_split_fields)))))
(define-fun us_split_fields__ref___split_fields__content__3__projection ((a us_split_fields__ref)) us_split_fields 
  (us_split_fields__content a))

(declare-datatypes ()
((us_rep (us_repqtmk (us_split_fields1 us_split_fields)))))
(define-fun us_rep___split_fields__3__projection ((a us_rep)) us_split_fields 
  (us_split_fields1 a))

(define-fun bool_eq1 ((a us_rep)
  (b us_rep)) Bool (ite (and
                        (= (bool_eq
                           (rec__composite_cursors__cont2__content
                           (us_split_fields1 a)) 1 100
                           (rec__composite_cursors__cont2__content
                           (us_split_fields1 b)) 1 100) true)
                        (= (to_rep
                           (rec__composite_cursors__cont2__length
                           (us_split_fields1 a))) (to_rep
                                                  (rec__composite_cursors__cont2__length
                                                  (us_split_fields1 b)))))
                   true false))

(declare-const value__size1 Int)

(declare-const object__size1 Int)

(declare-const alignment1 Int)

;; value__size_axiom
  (assert (<= 0 value__size1))

;; object__size_axiom
  (assert (<= 0 object__size1))

;; alignment_axiom
  (assert (<= 0 alignment1))

(declare-const composite_cursors__cont2__content__first__bit Int)

(declare-const composite_cursors__cont2__content__last__bit Int)

(declare-const composite_cursors__cont2__content__position Int)

;; composite_cursors__cont2__content__first__bit_axiom
  (assert (<= 0 composite_cursors__cont2__content__first__bit))

;; composite_cursors__cont2__content__last__bit_axiom
  (assert
  (< composite_cursors__cont2__content__first__bit composite_cursors__cont2__content__last__bit))

;; composite_cursors__cont2__content__position_axiom
  (assert (<= 0 composite_cursors__cont2__content__position))

(declare-const composite_cursors__cont2__length__first__bit Int)

(declare-const composite_cursors__cont2__length__last__bit Int)

(declare-const composite_cursors__cont2__length__position Int)

;; composite_cursors__cont2__length__first__bit_axiom
  (assert (<= 0 composite_cursors__cont2__length__first__bit))

;; composite_cursors__cont2__length__last__bit_axiom
  (assert
  (< composite_cursors__cont2__length__first__bit composite_cursors__cont2__length__last__bit))

;; composite_cursors__cont2__length__position_axiom
  (assert (<= 0 composite_cursors__cont2__length__position))

(declare-fun user_eq2 (us_rep us_rep) Bool)

(declare-const dummy2 us_rep)

(declare-datatypes ()
((cont2__ref (cont2__refqtmk (cont2__content us_rep)))))
(define-fun cont2__ref_cont2__content__projection ((a cont2__ref)) us_rep 
  (cont2__content a))

(declare-datatypes ()
((us_split_fields2
 (us_split_fieldsqtmk1 (rec__composite_cursors__rec_cursor__content natural)))))
(define-fun us_split_fields_rec__composite_cursors__rec_cursor__content__projection ((a us_split_fields2)) natural 
  (rec__composite_cursors__rec_cursor__content a))

(declare-datatypes ()
((us_split_fields__ref1
 (us_split_fields__refqtmk1 (us_split_fields__content1 us_split_fields2)))))
(define-fun us_split_fields__ref___split_fields__content__2__projection ((a us_split_fields__ref1)) us_split_fields2 
  (us_split_fields__content1 a))

(declare-datatypes ()
((us_rep1 (us_repqtmk1 (us_split_fields3 us_split_fields2)))))
(define-fun us_rep___split_fields__2__projection ((a us_rep1)) us_split_fields2 
  (us_split_fields3 a))

(define-fun bool_eq2 ((a us_rep1)
  (b us_rep1)) Bool (ite (= (to_rep
                            (rec__composite_cursors__rec_cursor__content
                            (us_split_fields3 a))) (to_rep
                                                   (rec__composite_cursors__rec_cursor__content
                                                   (us_split_fields3 b))))
                    true false))

(declare-const value__size2 Int)

(declare-const object__size2 Int)

(declare-const alignment2 Int)

;; value__size_axiom
  (assert (<= 0 value__size2))

;; object__size_axiom
  (assert (<= 0 object__size2))

;; alignment_axiom
  (assert (<= 0 alignment2))

(declare-const composite_cursors__rec_cursor__content__first__bit Int)

(declare-const composite_cursors__rec_cursor__content__last__bit Int)

(declare-const composite_cursors__rec_cursor__content__position Int)

;; composite_cursors__rec_cursor__content__first__bit_axiom
  (assert (<= 0 composite_cursors__rec_cursor__content__first__bit))

;; composite_cursors__rec_cursor__content__last__bit_axiom
  (assert
  (< composite_cursors__rec_cursor__content__first__bit composite_cursors__rec_cursor__content__last__bit))

;; composite_cursors__rec_cursor__content__position_axiom
  (assert (<= 0 composite_cursors__rec_cursor__content__position))

(declare-fun user_eq3 (us_rep1 us_rep1) Bool)

(declare-const dummy3 us_rep1)

(declare-datatypes ()
((rec_cursor__ref (rec_cursor__refqtmk (rec_cursor__content us_rep1)))))
(define-fun rec_cursor__ref_rec_cursor__content__projection ((a rec_cursor__ref)) us_rep1 
  (rec_cursor__content a))

(declare-fun has_element (us_rep us_rep1) Bool)

(declare-fun has_element__function_guard (Bool us_rep us_rep1) Bool)

(define-fun dynamic_invariant ((temp___expr_242 us_rep)
  (temp___is_init_238 Bool) (temp___skip_constant_239 Bool)
  (temp___do_toplevel_240 Bool)
  (temp___do_typ_inv_241 Bool)) Bool (=> (= temp___do_toplevel_240 true)
                                     (=> (= temp___is_init_238 true)
                                     (<= (to_rep
                                         (rec__composite_cursors__cont2__length
                                         (us_split_fields1 temp___expr_242))) 100))))

(define-fun dynamic_predicate ((temp___251 us_rep)) Bool (<= (to_rep
                                                             (rec__composite_cursors__cont2__length
                                                             (us_split_fields1
                                                             temp___251))) 100))

;; has_element__post_axiom
  (assert true)

;; has_element__def_axiom
  (assert
  (forall ((c us_rep))
  (forall ((p us_rep1))
  (! (= (= (has_element c p) true)
     (let ((temp___258 (to_rep
                       (rec__composite_cursors__rec_cursor__content
                       (us_split_fields3 p)))))
     (and (<= 1 temp___258)
     (<= temp___258 (to_rep
                    (rec__composite_cursors__cont2__length
                    (us_split_fields1 c))))))) :pattern ((has_element c p)) ))))

(declare-const c us_rep)

(declare-const attr__ATTRIBUTE_ADDRESS Int)

(declare-const p us_rep1)

(declare-const attr__ATTRIBUTE_ADDRESS1 Int)

(declare-const i19s us_rep)

(declare-const attr__ATTRIBUTE_ADDRESS2 Int)

(declare-sort t13s 0)

(declare-fun t13sqtint (t13s) Int)

;; t13s'axiom
  (assert
  (forall ((i t13s)) (and (<= 1 (t13sqtint i)) (<= (t13sqtint i) 100))))

(define-fun in_range1 ((x Int)) Bool (and (<= 1 x) (<= x 100)))

(declare-fun attr__ATTRIBUTE_IMAGE1 (Int) us_image)

(declare-fun attr__ATTRIBUTE_VALUE__pre_check1 (us_image) Bool)

(declare-fun attr__ATTRIBUTE_VALUE1 (us_image) Int)

(declare-fun user_eq4 (t13s t13s) Bool)

(declare-const dummy4 t13s)

(declare-datatypes () ((t13s__ref (t13s__refqtmk (t13s__content t13s)))))
(define-fun t13s__ref_t13s__content__projection ((a t13s__ref)) t13s 
  (t13s__content a))

(define-fun dynamic_invariant1 ((temp___expr_39 Int) (temp___is_init_35 Bool)
  (temp___skip_constant_36 Bool) (temp___do_toplevel_37 Bool)
  (temp___do_typ_inv_38 Bool)) Bool (=>
                                    (or (= temp___is_init_35 true)
                                    (<= 0 2147483647)) (in_range
                                    temp___expr_39)))

;; Assume
  (assert (dynamic_invariant i19s true false true true))

;; Assume
  (assert (dynamic_invariant i19s true false true true))

;; Assume
  (assert (dynamic_invariant c true false true true))

;; Assume
  (assert true)

;; H
  (assert (has_element__function_guard (has_element c p) c p))

;; Assume
  (assert (= (has_element c p) true))

(declare-const temp___296 Int)

;; Ensures
  (assert
  (= (to_rep
     (rec__composite_cursors__rec_cursor__content (us_split_fields3 p))) 
  temp___296))

(assert
;; defqtvc
 ;; File "composite_cursors.ads", line 56, characters 0-0
  (not (<= 1 temp___296)))
(check-sat)
